100 500 200 500 10 100
26 338
11 292
12 301
62 245
94 253
58 336
85 416
17 353
51 399
33 482
34 469
25 313
92 264
54 301
44 387
76 471
65 360
13 371
63 297
34 437
18 351
76 396
86 339
94 371
69 500
17 354
11 282
14 269
68 331
69 409
68 214
79 492
93 339
15 284
10 476
10 234
37 493
64 341
75 428
67 266
90 211
54 292
22 335
64 388
69 481
100 382
48 322
75 317
23 433
85 396
72 372
48 483
40 308
38 444
75 232
11 411
31 378
34 285
29 262
78 377
38 467
77 435
17 329
15 498
47 402
60 469
91 271
71 386
62 472
88 364
57 287
70 497
61 476
75 376
46 453
31 478
45 208
49 406
66 362
73 347
60 245
75 235
84 464
70 445
98 500
89 387
100 333
48 450
16 363
41 295
45 275
42 483
77 383
33 318
51 240
46 256
45 228
13 350
19 212
82 375
